NAME
* Written by MOSEK version 6.0.0.137
OBJSENSE
    MIN
ROWS
 N  obj
 E  c1
 E  c2
 E  c3
 E  c4
 E  c5
 E  c6
 E  c7
 E  c8
 E  c9
 E  c10
 E  c11
 E  c12
COLUMNS
    x1        obj       66
    x1        c1        1
    x1        c2        5
    x1        c11       3
    x1        c12       3
    x2        obj       63
    x2        c2        8
    x2        c12       6
    x3        obj       62
    x3        c2        7
    x3        c12       8
    x4        obj       60
    x4        c3        1
    x4        c4        3
    x4        c11       3
    x4        c12       4
    x5        obj       58
    x5        c4        5
    x5        c12       7
    x6        obj       66
    x6        c4        7
    x6        c12       6
    x7        obj       1.04e+02
    x7        c5        1
    x7        c6        8
    x7        c11       6
    x7        c12       8
    x8        obj       47
    x8        c6        3
    x8        c12       8
    x9        obj       47
    x9        c6        4
    x9        c12       7
    x10       obj       71
    x10       c7        1
    x10       c8        2
    x10       c11       4
    x10       c12       6
    x11       obj       78
    x11       c8        7
    x11       c12       6
    x12       obj       42
    x12       c8        3
    x12       c12       5
    x13       obj       88
    x13       c9        1
    x13       c10       8
    x13       c11       6
    x13       c12       3
    x14       obj       32
    x14       c10       3
    x14       c12       3
    x15       obj       27
    x15       c10       3
    x15       c12       3
RHS
    rhs       c1        6
    rhs       c2        82
    rhs       c3        9
    rhs       c4        99
    rhs       c5        10
    rhs       c6        1.25e+02
    rhs       c7        9
    rhs       c8        67
    rhs       c9        10
    rhs       c10       1.16e+02
    rhs       c11       2.01e+02
    rhs       c12       5.39e+02
RANGES
BOUNDS
 LI bound     x1        0
 LI bound     x2        0
 LI bound     x3        0
 LI bound     x4        0
 LI bound     x5        0
 LI bound     x6        0
 LI bound     x7        0
 LI bound     x8        0
 LI bound     x9        0
 LI bound     x10       0
 LI bound     x11       0
 LI bound     x12       0
 LI bound     x13       0
 LI bound     x14       0
 LI bound     x15       0
CSECTION      k1        0              QUAD
    x1
    x2
    x3
CSECTION      k2        0              QUAD
    x4
    x5
    x6
CSECTION      k3        0              QUAD
    x7
    x8
    x9
CSECTION      k4        0              QUAD
    x10
    x11
    x12
CSECTION      k5        0              QUAD
    x13
    x14
    x15
ENDATA
